TYPE : Vertex Cover
DIMENSION: 40
EDGE_DATA_SECTION:
0 1
0 3
0 28
1 7
1 13
1 26
2 5
2 11
2 16
2 19
2 31
3 5
3 9
3 20
4 14
4 17
4 18
4 30
4 31
4 37
4 39
5 24
5 27
5 28
5 37
5 38
6 10
6 15
6 29
6 30
6 35
7 8
7 9
7 20
7 24
7 34
7 38
8 12
8 14
8 15
8 19
8 28
9 16
9 28
9 32
9 33
10 26
10 27
10 37
11 13
11 15
11 20
11 24
11 27
11 29
11 30
11 33
11 34
11 38
12 20
12 23
12 24
12 26
13 27
13 29
13 37
14 23
15 16
15 17
15 28
15 34
16 21
16 22
16 27
16 28
17 24
17 32
17 36
18 25
18 29
18 31
19 33
20 28
20 33
20 34
20 36
21 32
22 31
23 29
23 30
23 33
23 38
24 33
24 34
25 30
25 39
26 38
26 39
27 28
27 31
27 37
28 34
29 33
29 37
32 36
36 39
37 39
-1
VERTEX_DEGREE:
3.0 4.0 5.0 4.0 7.0 7.0 5.0 7.0 6.0 6.0 4.0 11.0 5.0 5.0 3.0 7.0 7.0 5.0 4.0 3.0 8.0 2.0 2.0 6.0 7.0 3.0 5.0 8.0 9.0 7.0 5.0 5.0 4.0 7.0 6.0 1.0 4.0 7.0 5.0 5.0
VERTEX_COVER:
1 3 4 5 6 7 8 11 15 16 19 20 23 24 25 26 27 28 29 31 32 33 36 37
EOF
